92 36 27 28 29 69 38 99 81 49 10 43 56 13 77 
98 14 52 21 63 33 64 44 7 79 3 78 57 54 37 55 91 74 24 26 89 
65 83 39 67 19 87 41 48 4 17 70 25 93 
85 62 94 11 73 5 61 53 22 97 80 58 
30 76 51 18 8 96 100 
12 45 88 50 9 
82 2 31 71 72 75 40 84 
95 42 47 59 15 16 23 86 90 6 46 34 32 66 20 68 35 1 60 

